p cnf 369 919
-1 -307 -95 0 
-1 307 95 0 
1 -307 95 0 
1 307 -95 0 
-2 -156 0 
-2 -97 157 0 
2 -157 0 
2 97 156 0 
-3 -159 0 
-3 -99 160 0 
3 -160 0 
3 99 159 0 
-4 -162 0 
-4 -101 163 0 
4 -163 0 
4 101 162 0 
-5 -165 0 
-5 -103 166 0 
5 -166 0 
5 103 165 0 
-6 -168 0 
-6 -105 169 0 
6 -169 0 
6 105 168 0 
-7 -171 0 
-7 -107 172 0 
7 -172 0 
7 107 171 0 
-8 -174 0 
-8 -109 175 0 
8 -175 0 
8 109 174 0 
-9 -177 0 
-9 -111 178 0 
9 -178 0 
9 111 177 0 
-10 -180 0 
-10 -113 181 0 
10 -181 0 
10 113 180 0 
-11 -183 0 
-11 -115 184 0 
11 -184 0 
11 115 183 0 
-12 -186 0 
-12 -117 187 0 
12 -187 0 
12 117 186 0 
-13 -189 0 
-13 -119 190 0 
13 -190 0 
13 119 189 0 
-14 -192 0 
-14 -121 193 0 
14 -193 0 
14 121 192 0 
-15 -195 0 
-15 -123 196 0 
15 -196 0 
15 123 195 0 
-16 -198 0 
-16 -125 199 0 
16 -199 0 
16 125 198 0 
-17 -201 0 
-17 -127 202 0 
17 -202 0 
17 127 201 0 
-18 -204 0 
-18 -129 205 0 
18 -205 0 
18 129 204 0 
-19 -207 0 
-19 -131 208 0 
19 -208 0 
19 131 207 0 
-20 -210 0 
-20 -133 211 0 
20 -211 0 
20 133 210 0 
-21 -213 0 
-21 -135 214 0 
21 -214 0 
21 135 213 0 
-22 -216 0 
-22 -137 217 0 
22 -217 0 
22 137 216 0 
-23 -219 0 
-23 -139 220 0 
23 -220 0 
23 139 219 0 
-24 -222 0 
-24 -141 223 0 
24 -223 0 
24 141 222 0 
-25 -225 0 
-25 -143 226 0 
25 -226 0 
25 143 225 0 
-26 -228 0 
-26 -145 229 0 
26 -229 0 
26 145 228 0 
-27 -231 0 
-27 -147 232 0 
27 -232 0 
27 147 231 0 
-28 -234 0 
-28 -149 235 0 
28 -235 0 
28 149 234 0 
-29 -237 0 
-29 -151 238 0 
29 -238 0 
29 151 237 0 
-30 -240 0 
-30 -153 241 0 
30 -241 0 
30 153 240 0 
-31 -243 0 
-31 -155 244 0 
31 -244 0 
31 155 243 0 
-32 -368 0 
-32 -64 246 0 
32 -246 0 
32 64 368 0 
-33 -95 94 0 
-33 95 -94 0 
33 -95 -94 0 
33 95 94 0 
-34 -94 0 
-34 93 96 0 
34 -96 0 
34 -93 94 0 
-35 -93 0 
-35 92 98 0 
35 -98 0 
35 -92 93 0 
-36 -92 0 
-36 91 100 0 
36 -100 0 
36 -91 92 0 
-37 -91 0 
-37 90 102 0 
37 -102 0 
37 -90 91 0 
-38 -90 0 
-38 89 104 0 
38 -104 0 
38 -89 90 0 
-39 -89 0 
-39 88 106 0 
39 -106 0 
39 -88 89 0 
-40 -88 0 
-40 87 108 0 
40 -108 0 
40 -87 88 0 
-41 -87 0 
-41 86 110 0 
41 -110 0 
41 -86 87 0 
-42 -86 0 
-42 85 112 0 
42 -112 0 
42 -85 86 0 
-43 -85 0 
-43 84 114 0 
43 -114 0 
43 -84 85 0 
-44 -84 0 
-44 83 116 0 
44 -116 0 
44 -83 84 0 
-45 -83 0 
-45 82 118 0 
45 -118 0 
45 -82 83 0 
-46 -82 0 
-46 81 120 0 
46 -120 0 
46 -81 82 0 
-47 -81 0 
-47 80 122 0 
47 -122 0 
47 -80 81 0 
-48 -80 0 
-48 79 124 0 
48 -124 0 
48 -79 80 0 
-49 -79 0 
-49 78 126 0 
49 -126 0 
49 -78 79 0 
-50 -78 0 
-50 77 128 0 
50 -128 0 
50 -77 78 0 
-51 -77 0 
-51 76 130 0 
51 -130 0 
51 -76 77 0 
-52 -76 0 
-52 75 132 0 
52 -132 0 
52 -75 76 0 
-53 -75 0 
-53 74 134 0 
53 -134 0 
53 -74 75 0 
-54 -74 0 
-54 73 136 0 
54 -136 0 
54 -73 74 0 
-55 -73 0 
-55 72 138 0 
55 -138 0 
55 -72 73 0 
-56 -72 0 
-56 71 140 0 
56 -140 0 
56 -71 72 0 
-57 -71 0 
-57 70 142 0 
57 -142 0 
57 -70 71 0 
-58 -70 0 
-58 69 144 0 
58 -144 0 
58 -69 70 0 
-59 -69 0 
-59 68 146 0 
59 -146 0 
59 -68 69 0 
-60 -68 0 
-60 67 148 0 
60 -148 0 
60 -67 68 0 
-61 -67 0 
-61 66 150 0 
61 -150 0 
61 -66 67 0 
-62 -66 0 
-62 65 152 0 
62 -152 0 
62 -65 66 0 
-63 -65 0 
-63 -64 154 0 
63 -154 0 
63 64 65 0 
-64 -65 0 
-64 -368 0 
64 -154 0 
64 -246 0 
-65 -152 0 
-65 -155 0 
65 -66 0 
65 154 155 0 
-66 -150 0 
-66 -153 0 
66 -67 0 
66 152 153 0 
-67 -148 0 
-67 -151 0 
67 -68 0 
67 150 151 0 
-68 -146 0 
-68 -149 0 
68 -69 0 
68 148 149 0 
-69 -144 0 
-69 -147 0 
69 -70 0 
69 146 147 0 
-70 -142 0 
-70 -145 0 
70 -71 0 
70 144 145 0 
-71 -140 0 
-71 -143 0 
71 -72 0 
71 142 143 0 
-72 -138 0 
-72 -141 0 
72 -73 0 
72 140 141 0 
-73 -136 0 
-73 -139 0 
73 -74 0 
73 138 139 0 
-74 -134 0 
-74 -137 0 
74 -75 0 
74 136 137 0 
-75 -132 0 
-75 -135 0 
75 -76 0 
75 134 135 0 
-76 -130 0 
-76 -133 0 
76 -77 0 
76 132 133 0 
-77 -128 0 
-77 -131 0 
77 -78 0 
77 130 131 0 
-78 -126 0 
-78 -129 0 
78 -79 0 
78 128 129 0 
-79 -124 0 
-79 -127 0 
79 -80 0 
79 126 127 0 
-80 -122 0 
-80 -125 0 
80 -81 0 
80 124 125 0 
-81 -120 0 
-81 -123 0 
81 -82 0 
81 122 123 0 
-82 -118 0 
-82 -121 0 
82 -83 0 
82 120 121 0 
-83 -116 0 
-83 -119 0 
83 -84 0 
83 118 119 0 
-84 -114 0 
-84 -117 0 
84 -85 0 
84 116 117 0 
-85 -112 0 
-85 -115 0 
85 -86 0 
85 114 115 0 
-86 -110 0 
-86 -113 0 
86 -87 0 
86 112 113 0 
-87 -108 0 
-87 -111 0 
87 -88 0 
87 110 111 0 
-88 -106 0 
-88 -109 0 
88 -89 0 
88 108 109 0 
-89 -104 0 
-89 -107 0 
89 -90 0 
89 106 107 0 
-90 -102 0 
-90 -105 0 
90 -91 0 
90 104 105 0 
-91 -100 0 
-91 -103 0 
91 -92 0 
91 102 103 0 
-92 -98 0 
-92 -101 0 
92 -93 0 
92 100 101 0 
-93 -96 0 
-93 -99 0 
93 -94 0 
93 98 99 0 
-94 -97 0 
94 96 97 0 
-96 -97 0 
-97 -156 0 
97 -157 0 
-98 -99 0 
-99 -159 0 
99 -160 0 
-100 -101 0 
-101 -162 0 
101 -163 0 
-102 -103 0 
-103 -165 0 
103 -166 0 
-104 -105 0 
-105 -168 0 
105 -169 0 
-106 -107 0 
-107 -171 0 
107 -172 0 
-108 -109 0 
-109 -174 0 
109 -175 0 
-110 -111 0 
-111 -177 0 
111 -178 0 
-112 -113 0 
-113 -180 0 
113 -181 0 
-114 -115 0 
-115 -183 0 
115 -184 0 
-116 -117 0 
-117 -186 0 
117 -187 0 
-118 -119 0 
-119 -189 0 
119 -190 0 
-120 -121 0 
-121 -192 0 
121 -193 0 
-122 -123 0 
-123 -195 0 
123 -196 0 
-124 -125 0 
-125 -198 0 
125 -199 0 
-126 -127 0 
-127 -201 0 
127 -202 0 
-128 -129 0 
-129 -204 0 
129 -205 0 
-130 -131 0 
-131 -207 0 
131 -208 0 
-132 -133 0 
-133 -210 0 
133 -211 0 
-134 -135 0 
-135 -213 0 
135 -214 0 
-136 -137 0 
-137 -216 0 
137 -217 0 
-138 -139 0 
-139 -219 0 
139 -220 0 
-140 -141 0 
-141 -222 0 
141 -223 0 
-142 -143 0 
-143 -225 0 
143 -226 0 
-144 -145 0 
-145 -228 0 
145 -229 0 
-146 -147 0 
-147 -231 0 
147 -232 0 
-148 -149 0 
-149 -234 0 
149 -235 0 
-150 -151 0 
-151 -237 0 
151 -238 0 
-152 -153 0 
-153 -240 0 
153 -241 0 
-154 -155 0 
-155 -243 0 
155 -244 0 
-156 -158 0 
156 157 158 0 
-157 -158 0 
-157 -306 0 
157 305 306 0 
-158 -308 0 
-158 304 305 0 
158 -305 0 
158 -304 308 0 
-159 -161 0 
159 160 161 0 
-160 -161 0 
-160 -304 0 
160 303 304 0 
-161 -310 0 
-161 302 303 0 
161 -303 0 
161 -302 310 0 
-162 -164 0 
162 163 164 0 
-163 -164 0 
-163 -302 0 
163 301 302 0 
-164 -312 0 
-164 300 301 0 
164 -301 0 
164 -300 312 0 
-165 -167 0 
165 166 167 0 
-166 -167 0 
-166 -300 0 
166 299 300 0 
-167 -314 0 
-167 298 299 0 
167 -299 0 
167 -298 314 0 
-168 -170 0 
168 169 170 0 
-169 -170 0 
-169 -298 0 
169 297 298 0 
-170 -316 0 
-170 296 297 0 
170 -297 0 
170 -296 316 0 
-171 -173 0 
171 172 173 0 
-172 -173 0 
-172 -296 0 
172 295 296 0 
-173 -318 0 
-173 294 295 0 
173 -295 0 
173 -294 318 0 
-174 -176 0 
174 175 176 0 
-175 -176 0 
-175 -294 0 
175 293 294 0 
-176 -320 0 
-176 292 293 0 
176 -293 0 
176 -292 320 0 
-177 -179 0 
177 178 179 0 
-178 -179 0 
-178 -292 0 
178 291 292 0 
-179 -322 0 
-179 290 291 0 
179 -291 0 
179 -290 322 0 
-180 -182 0 
180 181 182 0 
-181 -182 0 
-181 -290 0 
181 289 290 0 
-182 -324 0 
-182 288 289 0 
182 -289 0 
182 -288 324 0 
-183 -185 0 
183 184 185 0 
-184 -185 0 
-184 -288 0 
184 287 288 0 
-185 -326 0 
-185 286 287 0 
185 -287 0 
185 -286 326 0 
-186 -188 0 
186 187 188 0 
-187 -188 0 
-187 -286 0 
187 285 286 0 
-188 -328 0 
-188 284 285 0 
188 -285 0 
188 -284 328 0 
-189 -191 0 
189 190 191 0 
-190 -191 0 
-190 -284 0 
190 283 284 0 
-191 -330 0 
-191 282 283 0 
191 -283 0 
191 -282 330 0 
-192 -194 0 
192 193 194 0 
-193 -194 0 
-193 -282 0 
193 281 282 0 
-194 -332 0 
-194 280 281 0 
194 -281 0 
194 -280 332 0 
-195 -197 0 
195 196 197 0 
-196 -197 0 
-196 -280 0 
196 279 280 0 
-197 -334 0 
-197 278 279 0 
197 -279 0 
197 -278 334 0 
-198 -200 0 
198 199 200 0 
-199 -200 0 
-199 -278 0 
199 277 278 0 
-200 -336 0 
-200 276 277 0 
200 -277 0 
200 -276 336 0 
-201 -203 0 
201 202 203 0 
-202 -203 0 
-202 -276 0 
202 275 276 0 
-203 -338 0 
-203 274 275 0 
203 -275 0 
203 -274 338 0 
-204 -206 0 
204 205 206 0 
-205 -206 0 
-205 -274 0 
205 273 274 0 
-206 -340 0 
-206 272 273 0 
206 -273 0 
206 -272 340 0 
-207 -209 0 
207 208 209 0 
-208 -209 0 
-208 -272 0 
208 271 272 0 
-209 -342 0 
-209 270 271 0 
209 -271 0 
209 -270 342 0 
-210 -212 0 
210 211 212 0 
-211 -212 0 
-211 -270 0 
211 269 270 0 
-212 -344 0 
-212 268 269 0 
212 -269 0 
212 -268 344 0 
-213 -215 0 
213 214 215 0 
-214 -215 0 
-214 -268 0 
214 267 268 0 
-215 -346 0 
-215 266 267 0 
215 -267 0 
215 -266 346 0 
-216 -218 0 
216 217 218 0 
-217 -218 0 
-217 -266 0 
217 265 266 0 
-218 -348 0 
-218 264 265 0 
218 -265 0 
218 -264 348 0 
-219 -221 0 
219 220 221 0 
-220 -221 0 
-220 -264 0 
220 263 264 0 
-221 -350 0 
-221 262 263 0 
221 -263 0 
221 -262 350 0 
-222 -224 0 
222 223 224 0 
-223 -224 0 
-223 -262 0 
223 261 262 0 
-224 -352 0 
-224 260 261 0 
224 -261 0 
224 -260 352 0 
-225 -227 0 
225 226 227 0 
-226 -227 0 
-226 -260 0 
226 259 260 0 
-227 -354 0 
-227 258 259 0 
227 -259 0 
227 -258 354 0 
-228 -230 0 
228 229 230 0 
-229 -230 0 
-229 -258 0 
229 257 258 0 
-230 -356 0 
-230 256 257 0 
230 -257 0 
230 -256 356 0 
-231 -233 0 
231 232 233 0 
-232 -233 0 
-232 -256 0 
232 255 256 0 
-233 -358 0 
-233 254 255 0 
233 -255 0 
233 -254 358 0 
-234 -236 0 
234 235 236 0 
-235 -236 0 
-235 -254 0 
235 253 254 0 
-236 -360 0 
-236 252 253 0 
236 -253 0 
236 -252 360 0 
-237 -239 0 
237 238 239 0 
-238 -239 0 
-238 -252 0 
238 251 252 0 
-239 -362 0 
-239 250 251 0 
239 -251 0 
239 -250 362 0 
-240 -242 0 
240 241 242 0 
-241 -242 0 
-241 -250 0 
241 249 250 0 
-242 -364 0 
-242 248 249 0 
242 -249 0 
242 -248 364 0 
-243 -245 0 
243 244 245 0 
-244 -245 0 
-244 -248 0 
244 247 248 0 
-245 -366 0 
-245 -246 247 0 
245 -247 0 
245 246 366 0 
-246 -366 0 
-246 -369 0 
246 -247 0 
246 368 369 0 
-247 -248 0 
-247 -367 0 
247 366 367 0 
-248 -249 0 
248 -364 0 
-249 -250 0 
-249 -365 0 
249 364 365 0 
-250 -251 0 
250 -362 0 
-251 -252 0 
-251 -363 0 
251 362 363 0 
-252 -253 0 
252 -360 0 
-253 -254 0 
-253 -361 0 
253 360 361 0 
-254 -255 0 
254 -358 0 
-255 -256 0 
-255 -359 0 
255 358 359 0 
-256 -257 0 
256 -356 0 
-257 -258 0 
-257 -357 0 
257 356 357 0 
-258 -259 0 
258 -354 0 
-259 -260 0 
-259 -355 0 
259 354 355 0 
-260 -261 0 
260 -352 0 
-261 -262 0 
-261 -353 0 
261 352 353 0 
-262 -263 0 
262 -350 0 
-263 -264 0 
-263 -351 0 
263 350 351 0 
-264 -265 0 
264 -348 0 
-265 -266 0 
-265 -349 0 
265 348 349 0 
-266 -267 0 
266 -346 0 
-267 -268 0 
-267 -347 0 
267 346 347 0 
-268 -269 0 
268 -344 0 
-269 -270 0 
-269 -345 0 
269 344 345 0 
-270 -271 0 
270 -342 0 
-271 -272 0 
-271 -343 0 
271 342 343 0 
-272 -273 0 
272 -340 0 
-273 -274 0 
-273 -341 0 
273 340 341 0 
-274 -275 0 
274 -338 0 
-275 -276 0 
-275 -339 0 
275 338 339 0 
-276 -277 0 
276 -336 0 
-277 -278 0 
-277 -337 0 
277 336 337 0 
-278 -279 0 
278 -334 0 
-279 -280 0 
-279 -335 0 
279 334 335 0 
-280 -281 0 
280 -332 0 
-281 -282 0 
-281 -333 0 
281 332 333 0 
-282 -283 0 
282 -330 0 
-283 -284 0 
-283 -331 0 
283 330 331 0 
-284 -285 0 
284 -328 0 
-285 -286 0 
-285 -329 0 
285 328 329 0 
-286 -287 0 
286 -326 0 
-287 -288 0 
-287 -327 0 
287 326 327 0 
-288 -289 0 
288 -324 0 
-289 -290 0 
-289 -325 0 
289 324 325 0 
-290 -291 0 
290 -322 0 
-291 -292 0 
-291 -323 0 
291 322 323 0 
-292 -293 0 
292 -320 0 
-293 -294 0 
-293 -321 0 
293 320 321 0 
-294 -295 0 
294 -318 0 
-295 -296 0 
-295 -319 0 
295 318 319 0 
-296 -297 0 
296 -316 0 
-297 -298 0 
-297 -317 0 
297 316 317 0 
-298 -299 0 
298 -314 0 
-299 -300 0 
-299 -315 0 
299 314 315 0 
-300 -301 0 
300 -312 0 
-301 -302 0 
-301 -313 0 
301 312 313 0 
-302 -303 0 
302 -310 0 
-303 -304 0 
-303 -311 0 
303 310 311 0 
-304 -305 0 
304 -308 0 
-305 -306 0 
-305 -309 0 
305 308 309 0 
-306 307 0 
306 -307 0 
-308 -309 0 
-310 -311 0 
-312 -313 0 
-314 -315 0 
-316 -317 0 
-318 -319 0 
-320 -321 0 
-322 -323 0 
-324 -325 0 
-326 -327 0 
-328 -329 0 
-330 -331 0 
-332 -333 0 
-334 -335 0 
-336 -337 0 
-338 -339 0 
-340 -341 0 
-342 -343 0 
-344 -345 0 
-346 -347 0 
-348 -349 0 
-350 -351 0 
-352 -353 0 
-354 -355 0 
-356 -357 0 
-358 -359 0 
-360 -361 0 
-362 -363 0 
-364 -365 0 
-366 -367 0 
-368 -369 0 
